NAME : XML100_3372_15
DIMENSION : 101
NB_CLUSTERS : 3
CLUSTERING_ALG : KMedoids
CLUSTERING_PARAMS : k(2)
CLUSTERS
1 0
2 1 2 4 7 8 10 11 12 13 14 17 18 19 20 21 22 23 25 29 31 32 34 36 37 41 43 44 45 46 49 50 51 52 53 55 56 57 58 61 62 63 64 66 67 68 69 70 71 73 74 75 77 78 79 81 82 84 88 89 90 93 94 95 96 97 99 100
3 3 5 6 9 15 16 24 26 27 28 30 33 35 38 39 40 42 47 48 54 59 60 65 72 76 80 83 85 86 87 91 92 98
EOF